NAME : optical-integer.-16085836.tour
COMMENT : Length = -16085836
COMMENT : Found by LKH [Keld Helsgaun] Wed May 19 13:15:22 2021
TYPE : TOUR
DIMENSION : 174
TOUR_SECTION
1
18
38
16
43
65
82
145
3
70
4
93
31
6
62
13
33
8
75
36
29
69
45
61
40
20
32
47
60
58
149
78
21
19
23
83
90
41
22
112
94
34
11
156
98
174
71
37
5
86
54
51
88
39
2
140
167
168
172
150
89
144
148
158
155
152
153
151
10
87
25
24
63
96
9
80
14
84
15
154
95
73
91
17
30
77
92
67
50
42
66
81
68
85
56
55
79
72
52
64
110
106
101
120
117
102
115
100
111
103
105
104
109
113
114
132
133
134
130
129
127
121
173
119
169
137
48
139
97
138
131
136
135
159
165
161
166
116
157
57
141
162
163
164
160
118
53
59
44
28
7
108
27
122
126
125
124
123
107
99
49
143
142
147
76
128
146
171
170
26
12
74
46
35
-1
EOF
